p cnf 38 110
a 19 15 0
e 1 2 3 4 5 6 7 8 9 10 11 12 13 14 16 17 18 20 21 22 23 24 25 26 27 28 29 30 31 32 33 34 35 36 37 38 0
-3 1 0
-3 -2 0
-1 2 3 0
4 -1 -5 0
-4 1 -5 0
4 1 5 0
-4 -1 5 0
7 -5 0
7 6 0
5 -6 -7 0
-3 7 -8 0
3 -7 -8 0
-3 -7 8 0
3 7 8 0
10 9 0
10 4 0
-9 -4 -10 0
-8 -10 -11 0
8 10 -11 0
-8 10 11 0
8 -10 11 0
12 1 0
12 -4 0
-1 4 -12 0
-13 14 -15 0
13 -14 -15 0
-13 -14 15 0
13 14 15 0
12 15 -16 0
-12 -15 -16 0
12 -15 16 0
-12 15 16 0
17 -2 0
17 -6 0
2 6 -17 0
18 17 0
18 -6 0
-17 6 -18 0
-17 -18 -19 0
17 18 -19 0
-17 18 19 0
17 -18 19 0
16 -19 -20 0
-16 19 -20 0
16 19 20 0
-16 -19 20 0
4 -1 -21 0
-4 1 -21 0
4 1 21 0
-4 -1 21 0
-22 20 0
-22 21 0
-20 -21 22 0
24 -12 -25 0
-24 12 -25 0
24 12 25 0
-24 -12 25 0
25 -26 -27 0
-25 26 -27 0
25 26 27 0
-25 -26 27 0
28 23 0
28 27 0
-23 -27 -28 0
22 -28 -29 0
-22 28 -29 0
22 28 29 0
-22 -28 29 0
-14 13 -30 0
14 -13 -30 0
-14 -13 30 0
14 13 30 0
-31 30 0
-31 24 0
-30 -24 31 0
3 31 -32 0
-3 -31 -32 0
3 -31 32 0
-3 31 32 0
25 -18 -33 0
-25 18 -33 0
25 18 33 0
-25 -18 33 0
-34 2 0
-34 -13 0
-2 13 34 0
-35 33 0
-35 -34 0
-33 34 35 0
-36 -32 0
-36 -35 0
32 35 36 0
37 29 0
37 36 0
-29 -36 -37 0
11 37 -38 0
-11 -37 -38 0
11 -37 38 0
-11 37 38 0
35 33 31 15 4 24 23 0
-3 16 -7 8 0
34 23 12 17 0
10 -27 30 37 -23 -31 -3 0
2 9 -20 -11 17 0
30 33 -8 -31 -26 0
-25 -13 -18 -32 0
9 -32 3 -18 15 -34 0
20 5 36 0
-30 36 -32 6 0
38 0
